20 4
95 99 81 59 56 32 77 70 41 52 103 59 65 66 51 96 49 73 96 44
78 110 88 77 40 42 77 51 30 58 96 76 68 54 38 77 44 71 96 40
88 87 62 56 67 58 78 69 42 34 96 60 75 46 43 89 51 51 92 50
79 82 81 69 44 56 58 77 34 50 89 50 74 74 56 84 35 55 102 54
